Welcome to the CBC MILP Solver
Version: Devel (unstable)
Build Date: Feb  6 2022
command line - -import /home/danilo/psp-janniele/J30/j3041/j3041_2.lp -timeM elapsed -seconds 10800 -solve -quit (default strategy 1)
seconds was changed from 1e+08 to 10800
Continuous objective value is 0.535721 - 0.226311 seconds
Cgl0002I 5 variables fixed
Cgl0003I 14 fixed, 0 tightened bounds, 11 strengthened rows, 0 substitutions
Cgl0003I 0 fixed, 0 tightened bounds, 3 strengthened rows, 0 substitutions
Cgl0003I 0 fixed, 0 tightened bounds, 7 strengthened rows, 0 substitutions
Cgl0003I 0 fixed, 0 tightened bounds, 6 strengthened rows, 0 substitutions
Cgl0003I 0 fixed, 0 tightened bounds, 5 strengthened rows, 0 substitutions
Cgl0003I 0 fixed, 0 tightened bounds, 5 strengthened rows, 0 substitutions
Cgl0003I 0 fixed, 0 tightened bounds, 4 strengthened rows, 0 substitutions
Cgl0003I 0 fixed, 0 tightened bounds, 3 strengthened rows, 0 substitutions
Cgl0003I 0 fixed, 0 tightened bounds, 2 strengthened rows, 0 substitutions
Cgl0003I 0 fixed, 0 tightened bounds, 1 strengthened rows, 0 substitutions
Cgl0004I processed model has 321 rows, 826 columns (826 integer (825 of which binary)) and 9430 elements
Coin3009W Conflict graph built in 0.097 seconds, density: 1.581%
Cgl0015I Clique Strengthening extended 0 cliques, 0 were dominated
Cbc0045I Cutoff increment increased from 0.0001 to 0.9999
Cbc0045I 1 integer variables out of 826 objects (826 integer) have cost of 1 - high priority
Cbc0045I branch on satisfied Y create fake objective Y random cost Y
Cbc0038I Initial state - 124 integers unsatisfied sum - 26.1707
Cbc0038I Pass   1: suminf.   16.94137 (76) obj. 2.45631 iterations 259
Cbc0038I Pass   2: suminf.   11.90351 (62) obj. 4 iterations 89
Cbc0038I Pass   3: suminf.   10.06396 (56) obj. 4 iterations 53
Cbc0038I Pass   4: suminf.    9.43442 (50) obj. 4 iterations 27
Cbc0038I Pass   5: suminf.    7.84004 (35) obj. 4 iterations 38
Cbc0038I Pass   6: suminf.    6.83353 (34) obj. 4 iterations 32
Cbc0038I Pass   7: suminf.    6.83353 (34) obj. 4 iterations 4
Cbc0038I Pass   8: suminf.    6.81762 (37) obj. 4 iterations 48
Cbc0038I Pass   9: suminf.    5.78666 (36) obj. 4 iterations 43
Cbc0038I Pass  10: suminf.    5.41999 (36) obj. 4 iterations 6
Cbc0038I Pass  11: suminf.    6.78678 (39) obj. 4 iterations 91
Cbc0038I Pass  12: suminf.    6.24480 (36) obj. 4 iterations 38
Cbc0038I Pass  13: suminf.    5.71701 (37) obj. 4 iterations 19
Cbc0038I Pass  14: suminf.    9.57477 (41) obj. 4 iterations 128
Cbc0038I Pass  15: suminf.    8.40021 (40) obj. 4 iterations 58
Cbc0038I Pass  16: suminf.    8.36797 (41) obj. 4 iterations 19
Cbc0038I Pass  17: suminf.    6.17774 (34) obj. 4 iterations 154
Cbc0038I Pass  18: suminf.    5.10456 (26) obj. 4 iterations 36
Cbc0038I Pass  19: suminf.    8.09713 (34) obj. 4 iterations 100
Cbc0038I Pass  20: suminf.    6.61650 (27) obj. 4 iterations 64
Cbc0038I Pass  21: suminf.    5.88958 (25) obj. 4 iterations 75
Cbc0038I Pass  22: suminf.    5.77811 (27) obj. 4 iterations 28
Cbc0038I Pass  23: suminf.    7.26468 (34) obj. 4 iterations 93
Cbc0038I Pass  24: suminf.    6.33872 (26) obj. 4 iterations 32
Cbc0038I Pass  25: suminf.    5.92990 (28) obj. 4 iterations 66
Cbc0038I Pass  26: suminf.    5.83155 (28) obj. 4 iterations 14
Cbc0038I Pass  27: suminf.    7.58409 (35) obj. 4 iterations 93
Cbc0038I Pass  28: suminf.    6.49923 (31) obj. 4 iterations 29
Cbc0038I Pass  29: suminf.    6.33872 (26) obj. 4 iterations 7
Cbc0038I Pass  30: suminf.    6.00179 (22) obj. 4 iterations 97
Cbc0038I Pass  31: suminf.    4.94059 (24) obj. 4 iterations 63
Cbc0038I Pass  32: suminf.    5.98257 (26) obj. 4 iterations 62
Cbc0038I Pass  33: suminf.    5.31993 (27) obj. 4 iterations 30
Cbc0038I Pass  34: suminf.    7.77039 (30) obj. 4 iterations 89
Cbc0038I Pass  35: suminf.    7.05292 (27) obj. 4 iterations 65
Cbc0038I Pass  36: suminf.    6.96190 (27) obj. 4 iterations 12
Cbc0038I Pass  37: suminf.    6.89524 (26) obj. 4 iterations 14
Cbc0038I Pass  38: suminf.    6.89524 (26) obj. 4 iterations 6
Cbc0038I Pass  39: suminf.    8.16372 (32) obj. 4 iterations 81
Cbc0038I Pass  40: suminf.    6.31905 (26) obj. 4 iterations 45
Cbc0038I Pass  41: suminf.    6.31905 (26) obj. 4 iterations 16
Cbc0038I Pass  42: suminf.    7.58045 (28) obj. 4 iterations 73
Cbc0038I Pass  43: suminf.    6.71116 (28) obj. 4 iterations 37
Cbc0038I Pass  44: suminf.    6.46624 (26) obj. 4 iterations 17
Cbc0038I Pass  45: suminf.    8.01229 (29) obj. 4 iterations 80
Cbc0038I Pass  46: suminf.    7.38388 (27) obj. 4 iterations 33
Cbc0038I Pass  47: suminf.    6.32721 (24) obj. 4 iterations 21
Cbc0038I Pass  48: suminf.    6.32721 (24) obj. 4 iterations 11
Cbc0038I Pass  49: suminf.    8.65146 (35) obj. 4 iterations 91
Cbc0038I Pass  50: suminf.    6.77076 (28) obj. 4 iterations 59
Cbc0038I Pass  51: suminf.    6.70413 (27) obj. 4 iterations 31
Cbc0038I Pass  52: suminf.    6.51587 (27) obj. 4 iterations 21
Cbc0038I Pass  53: suminf.    7.41342 (36) obj. 4 iterations 74
Cbc0038I Pass  54: suminf.    6.67063 (28) obj. 4 iterations 35
Cbc0038I Pass  55: suminf.    6.86062 (33) obj. 4 iterations 81
Cbc0038I Pass  56: suminf.    6.51587 (27) obj. 4 iterations 38
Cbc0038I Pass  57: suminf.    6.51587 (27) obj. 4 iterations 2
Cbc0038I Pass  58: suminf.    6.08654 (32) obj. 4 iterations 54
Cbc0038I Pass  59: suminf.    5.95159 (28) obj. 4 iterations 32
Cbc0038I Pass  60: suminf.    6.88172 (27) obj. 4 iterations 76
Cbc0038I Pass  61: suminf.    6.84592 (26) obj. 4 iterations 26
Cbc0038I Pass  62: suminf.    6.81506 (26) obj. 4 iterations 7
Cbc0038I Pass  63: suminf.    6.01825 (28) obj. 4 iterations 60
Cbc0038I Pass  64: suminf.    5.95159 (28) obj. 4 iterations 14
Cbc0038I Pass  65: suminf.    9.61435 (50) obj. 4 iterations 117
Cbc0038I Pass  66: suminf.    7.91217 (26) obj. 4 iterations 67
Cbc0038I Pass  67: suminf.    7.72970 (26) obj. 4 iterations 19
Cbc0038I Pass  68: suminf.    7.56470 (26) obj. 4 iterations 17
Cbc0038I Pass  69: suminf.    7.18803 (26) obj. 4 iterations 13
Cbc0038I Pass  70: suminf.    6.37743 (25) obj. 4 iterations 25
Cbc0038I Pass  71: suminf.    6.37743 (25) obj. 4 iterations 9
Cbc0038I Pass  72: suminf.   16.29538 (71) obj. 4 iterations 162
Cbc0038I Pass  73: suminf.    9.23529 (56) obj. 4 iterations 118
Cbc0038I Pass  74: suminf.    7.63259 (45) obj. 4 iterations 59
Cbc0038I Pass  75: suminf.    7.23804 (45) obj. 4 iterations 37
Cbc0038I Pass  76: suminf.    7.30273 (42) obj. 4 iterations 74
Cbc0038I Pass  77: suminf.    7.16581 (42) obj. 4 iterations 32
Cbc0038I Pass  78: suminf.    7.23565 (37) obj. 4 iterations 97
Cbc0038I Pass  79: suminf.    5.27353 (33) obj. 4 iterations 36
Cbc0038I Pass  80: suminf.    4.96340 (29) obj. 4 iterations 4
Cbc0038I Pass  81: suminf.    4.76356 (29) obj. 4 iterations 11
Cbc0038I Pass  82: suminf.    8.74172 (37) obj. 4 iterations 86
Cbc0038I Pass  83: suminf.    6.64332 (36) obj. 4 iterations 48
Cbc0038I Pass  84: suminf.    6.60755 (37) obj. 4 iterations 3
Cbc0038I Pass  85: suminf.    7.10263 (43) obj. 4 iterations 71
Cbc0038I Pass  86: suminf.    6.51114 (39) obj. 4 iterations 26
Cbc0038I Pass  87: suminf.    6.42342 (40) obj. 4 iterations 15
Cbc0038I Pass  88: suminf.    7.04286 (25) obj. 4 iterations 69
Cbc0038I Pass  89: suminf.    5.49119 (31) obj. 4 iterations 54
Cbc0038I Pass  90: suminf.    5.48912 (35) obj. 4 iterations 13
Cbc0038I Pass  91: suminf.    6.36667 (28) obj. 4 iterations 39
Cbc0038I Pass  92: suminf.    5.68153 (36) obj. 4 iterations 36
Cbc0038I Pass  93: suminf.    6.76220 (35) obj. 4 iterations 63
Cbc0038I Pass  94: suminf.    5.70128 (34) obj. 4 iterations 40
Cbc0038I Pass  95: suminf.    5.70128 (36) obj. 4 iterations 7
Cbc0038I Pass  96: suminf.    6.16482 (37) obj. 4 iterations 27
Cbc0038I Pass  97: suminf.    5.67204 (35) obj. 4 iterations 30
Cbc0038I Pass  98: suminf.    9.58047 (34) obj. 4 iterations 78
Cbc0038I Pass  99: suminf.    8.14754 (34) obj. 4 iterations 35
Cbc0038I Pass 100: suminf.   16.57857 (66) obj. 4 iterations 192
Cbc0038I No solution found this major pass
Cbc0038I Before mini branch and bound, 543 integers at bound fixed and 0 continuous
Cbc0038I Full problem 321 rows 826 columns, reduced to 216 rows 245 columns
Cbc0038I Mini branch and bound did not improve solution (5.51 seconds)
Cbc0038I After 5.51 seconds - Feasibility pump exiting - took 2.75 seconds
Cbc0031I 92 added rows had average density of 99.315217
Cbc0013I At root node, 92 cuts changed objective from 0.59053079 to 1.9996396 in 10 passes
Cbc0014I Cut generator 0 (Probing) - 144 row cuts average 16.0 elements, 0 column cuts (0 active)  in 0.697 seconds - new frequency is 1
Cbc0014I Cut generator 1 (Gomory) - 146 row cuts average 810.8 elements, 0 column cuts (0 active)  in 1.564 seconds - new frequency is 1
Cbc0014I Cut generator 2 (Knapsack) - 28 row cuts average 13.6 elements, 0 column cuts (0 active)  in 0.129 seconds - new frequency is 1
Cbc0014I Cut generator 3 (Clique) - 49 row cuts average 24.7 elements, 0 column cuts (0 active)  in 0.050 seconds - new frequency is 1
Cbc0014I Cut generator 4 (OddWheel) - 1 row cuts average 5.0 elements, 0 column cuts (0 active)  in 0.210 seconds - new frequency is -100
Cbc0014I Cut generator 5 (MixedIntegerRounding2) - 114 row cuts average 45.5 elements, 0 column cuts (0 active)  in 0.083 seconds - new frequency is 1
Cbc0014I Cut generator 6 (FlowCover) - 0 row cuts average 0.0 elements, 0 column cuts (0 active)  in 0.004 seconds - new frequency is -100
Cbc0014I Cut generator 7 (TwoMirCuts) - 131 row cuts average 48.6 elements, 0 column cuts (0 active)  in 0.210 seconds - new frequency is 1
Cbc0014I Cut generator 8 (ZeroHalf) - 181 row cuts average 62.6 elements, 0 column cuts (0 active)  in 0.222 seconds - new frequency is 1
Cbc0010I After 0 nodes, 1 on tree, 1e+50 best solution, best possible 1.9996396 (11.00 seconds)
Cbc0010I After 1 nodes, 2 on tree, 1e+50 best solution, best possible 1.9996396 (13.57 seconds)
Cbc0010I After 2 nodes, 3 on tree, 1e+50 best solution, best possible 1.9996396 (14.53 seconds)
Cbc0010I After 3 nodes, 4 on tree, 1e+50 best solution, best possible 1.9996396 (15.48 seconds)
Cbc0010I After 4 nodes, 5 on tree, 1e+50 best solution, best possible 1.9996396 (16.35 seconds)
Cbc0010I After 5 nodes, 6 on tree, 1e+50 best solution, best possible 1.9996396 (17.29 seconds)
Cbc0010I After 6 nodes, 7 on tree, 1e+50 best solution, best possible 1.9996396 (18.09 seconds)
Cbc0010I After 9 nodes, 8 on tree, 1e+50 best solution, best possible 1.9996396 (19.06 seconds)
Cbc0010I After 12 nodes, 9 on tree, 1e+50 best solution, best possible 1.9996396 (20.12 seconds)
Cbc0010I After 15 nodes, 8 on tree, 1e+50 best solution, best possible 1.9996396 (20.89 seconds)
Cbc0010I After 17 nodes, 9 on tree, 1e+50 best solution, best possible 1.9996396 (21.80 seconds)
Cbc0010I After 21 nodes, 9 on tree, 1e+50 best solution, best possible 1.9996396 (23.05 seconds)
Cbc0010I After 24 nodes, 10 on tree, 1e+50 best solution, best possible 1.9996396 (24.02 seconds)
Cbc0010I After 27 nodes, 9 on tree, 1e+50 best solution, best possible 1.9996396 (24.73 seconds)
Cbc0010I After 31 nodes, 8 on tree, 1e+50 best solution, best possible 1.9996396 (25.75 seconds)
Cbc0010I After 33 nodes, 8 on tree, 1e+50 best solution, best possible 1.9996396 (26.53 seconds)
Cbc0010I After 38 nodes, 4 on tree, 1e+50 best solution, best possible 1.9996396 (27.45 seconds)
Cbc0010I After 40 nodes, 3 on tree, 1e+50 best solution, best possible 1.9996396 (28.40 seconds)
Cbc0010I After 42 nodes, 4 on tree, 1e+50 best solution, best possible 1.9996396 (29.23 seconds)
Cbc0010I After 43 nodes, 4 on tree, 1e+50 best solution, best possible 1.9996396 (29.94 seconds)
Cbc0010I After 45 nodes, 6 on tree, 1e+50 best solution, best possible 1.9996396 (30.90 seconds)
Cbc0010I After 49 nodes, 9 on tree, 1e+50 best solution, best possible 1.9996396 (31.85 seconds)
Cbc0010I After 54 nodes, 9 on tree, 1e+50 best solution, best possible 1.9996396 (32.71 seconds)
Cbc0010I After 58 nodes, 8 on tree, 1e+50 best solution, best possible 1.9996396 (33.43 seconds)
Cbc0010I After 61 nodes, 8 on tree, 1e+50 best solution, best possible 1.9996396 (34.19 seconds)
Cbc0010I After 65 nodes, 9 on tree, 1e+50 best solution, best possible 1.9996396 (35.06 seconds)
Cbc0010I After 69 nodes, 9 on tree, 1e+50 best solution, best possible 1.9996396 (36.02 seconds)
Cbc0010I After 74 nodes, 12 on tree, 1e+50 best solution, best possible 1.9996396 (36.82 seconds)
Cbc0010I After 79 nodes, 14 on tree, 1e+50 best solution, best possible 1.9996396 (37.62 seconds)
Cbc0010I After 84 nodes, 15 on tree, 1e+50 best solution, best possible 1.9996396 (38.37 seconds)
Cbc0010I After 91 nodes, 16 on tree, 1e+50 best solution, best possible 1.9996396 (39.13 seconds)
Cbc0010I After 96 nodes, 16 on tree, 1e+50 best solution, best possible 1.9996396 (39.83 seconds)
Cbc0010I After 103 nodes, 18 on tree, 1e+50 best solution, best possible 1.9996396 (40.54 seconds)
Cbc0010I After 112 nodes, 16 on tree, 1e+50 best solution, best possible 1.9996396 (41.29 seconds)
Cbc0010I After 122 nodes, 17 on tree, 1e+50 best solution, best possible 1.9996396 (42.07 seconds)
Cbc0010I After 133 nodes, 15 on tree, 1e+50 best solution, best possible 1.9996396 (42.85 seconds)
Cbc0010I After 141 nodes, 17 on tree, 1e+50 best solution, best possible 1.9996396 (43.57 seconds)
Cbc0010I After 147 nodes, 18 on tree, 1e+50 best solution, best possible 1.9996396 (44.28 seconds)
Cbc0010I After 153 nodes, 18 on tree, 1e+50 best solution, best possible 1.9996396 (45.01 seconds)
Cbc0010I After 162 nodes, 22 on tree, 1e+50 best solution, best possible 1.9996396 (45.73 seconds)
Cbc0010I After 170 nodes, 19 on tree, 1e+50 best solution, best possible 1.9996396 (46.45 seconds)
Cbc0010I After 176 nodes, 17 on tree, 1e+50 best solution, best possible 1.9996396 (47.40 seconds)
Cbc0010I After 180 nodes, 20 on tree, 1e+50 best solution, best possible 1.9996396 (48.31 seconds)
Cbc0010I After 186 nodes, 22 on tree, 1e+50 best solution, best possible 1.9996396 (49.02 seconds)
Cbc0010I After 195 nodes, 20 on tree, 1e+50 best solution, best possible 1.9996396 (49.99 seconds)
Cbc0010I After 202 nodes, 21 on tree, 1e+50 best solution, best possible 1.9996396 (50.70 seconds)
Cbc0010I After 208 nodes, 22 on tree, 1e+50 best solution, best possible 1.9996396 (51.46 seconds)
Cbc0010I After 216 nodes, 23 on tree, 1e+50 best solution, best possible 1.9996396 (52.44 seconds)
Cbc0010I After 224 nodes, 23 on tree, 1e+50 best solution, best possible 1.9996396 (53.17 seconds)
Cbc0010I After 229 nodes, 23 on tree, 1e+50 best solution, best possible 1.9996396 (53.89 seconds)
Cbc0010I After 234 nodes, 23 on tree, 1e+50 best solution, best possible 1.9996396 (54.78 seconds)
Cbc0010I After 240 nodes, 24 on tree, 1e+50 best solution, best possible 1.9996396 (55.80 seconds)
Cbc0010I After 246 nodes, 23 on tree, 1e+50 best solution, best possible 1.9996396 (56.80 seconds)
Cbc0010I After 250 nodes, 23 on tree, 1e+50 best solution, best possible 1.9996396 (57.57 seconds)
Cbc0010I After 257 nodes, 25 on tree, 1e+50 best solution, best possible 1.9996396 (58.28 seconds)
Cbc0010I After 262 nodes, 23 on tree, 1e+50 best solution, best possible 1.9996396 (58.99 seconds)
Cbc0010I After 265 nodes, 24 on tree, 1e+50 best solution, best possible 1.9996396 (59.73 seconds)
Cbc0010I After 271 nodes, 24 on tree, 1e+50 best solution, best possible 1.9996396 (60.57 seconds)
Cbc0010I After 276 nodes, 23 on tree, 1e+50 best solution, best possible 1.9996396 (61.28 seconds)
Cbc0010I After 281 nodes, 22 on tree, 1e+50 best solution, best possible 1.9996396 (62.04 seconds)
Cbc0010I After 286 nodes, 22 on tree, 1e+50 best solution, best possible 1.9996396 (62.96 seconds)
Cbc0010I After 291 nodes, 25 on tree, 1e+50 best solution, best possible 1.9996396 (63.77 seconds)
Cbc0010I After 298 nodes, 23 on tree, 1e+50 best solution, best possible 1.9996396 (64.48 seconds)
Cbc0010I After 302 nodes, 23 on tree, 1e+50 best solution, best possible 1.9996396 (65.22 seconds)
Cbc0010I After 307 nodes, 23 on tree, 1e+50 best solution, best possible 1.9996396 (65.98 seconds)
Cbc0010I After 313 nodes, 22 on tree, 1e+50 best solution, best possible 1.9996396 (66.68 seconds)
Cbc0010I After 320 nodes, 22 on tree, 1e+50 best solution, best possible 1.9996396 (67.58 seconds)
Cbc0010I After 326 nodes, 23 on tree, 1e+50 best solution, best possible 1.9996396 (68.31 seconds)
Cbc0010I After 331 nodes, 22 on tree, 1e+50 best solution, best possible 1.9996396 (69.05 seconds)
Cbc0010I After 335 nodes, 20 on tree, 1e+50 best solution, best possible 1.9996396 (69.87 seconds)
Cbc0010I After 338 nodes, 20 on tree, 1e+50 best solution, best possible 1.9996396 (70.83 seconds)
Cbc0010I After 343 nodes, 21 on tree, 1e+50 best solution, best possible 1.9996396 (71.78 seconds)
Cbc0010I After 348 nodes, 19 on tree, 1e+50 best solution, best possible 1.9996396 (72.60 seconds)
Cbc0010I After 352 nodes, 21 on tree, 1e+50 best solution, best possible 1.9996396 (73.61 seconds)
Cbc0010I After 359 nodes, 18 on tree, 1e+50 best solution, best possible 1.9996396 (74.46 seconds)
Cbc0010I After 361 nodes, 20 on tree, 1e+50 best solution, best possible 1.9996396 (75.17 seconds)
Cbc0010I After 365 nodes, 22 on tree, 1e+50 best solution, best possible 1.9996396 (75.95 seconds)
Cbc0010I After 370 nodes, 22 on tree, 1e+50 best solution, best possible 1.9996396 (76.75 seconds)
Cbc0010I After 375 nodes, 23 on tree, 1e+50 best solution, best possible 1.9996396 (77.64 seconds)
Cbc0010I After 381 nodes, 22 on tree, 1e+50 best solution, best possible 1.9996396 (78.41 seconds)
Cbc0010I After 387 nodes, 21 on tree, 1e+50 best solution, best possible 1.9996396 (79.12 seconds)
Cbc0010I After 395 nodes, 19 on tree, 1e+50 best solution, best possible 1.9996396 (80.04 seconds)
Cbc0010I After 398 nodes, 20 on tree, 1e+50 best solution, best possible 1.9996396 (80.98 seconds)
Cbc0010I After 404 nodes, 18 on tree, 1e+50 best solution, best possible 1.9996396 (81.78 seconds)
Cbc0010I After 408 nodes, 18 on tree, 1e+50 best solution, best possible 1.9996396 (82.55 seconds)
Cbc0010I After 412 nodes, 20 on tree, 1e+50 best solution, best possible 1.9996396 (83.54 seconds)
Cbc0010I After 416 nodes, 21 on tree, 1e+50 best solution, best possible 1.9996396 (84.30 seconds)
Cbc0010I After 419 nodes, 22 on tree, 1e+50 best solution, best possible 1.9996396 (85.07 seconds)
Cbc0010I After 423 nodes, 21 on tree, 1e+50 best solution, best possible 1.9996396 (85.84 seconds)
Cbc0010I After 432 nodes, 21 on tree, 1e+50 best solution, best possible 1.9996396 (86.84 seconds)
Cbc0010I After 437 nodes, 19 on tree, 1e+50 best solution, best possible 1.9996396 (87.75 seconds)
Cbc0010I After 441 nodes, 19 on tree, 1e+50 best solution, best possible 1.9996396 (88.45 seconds)
Cbc0010I After 444 nodes, 20 on tree, 1e+50 best solution, best possible 1.9996396 (89.26 seconds)
Cbc0010I After 450 nodes, 22 on tree, 1e+50 best solution, best possible 1.9996396 (90.02 seconds)
Cbc0010I After 457 nodes, 20 on tree, 1e+50 best solution, best possible 1.9996396 (90.96 seconds)
Cbc0010I After 462 nodes, 21 on tree, 1e+50 best solution, best possible 1.9996396 (91.94 seconds)
Cbc0010I After 469 nodes, 20 on tree, 1e+50 best solution, best possible 1.9996396 (92.80 seconds)
Cbc0010I After 473 nodes, 18 on tree, 1e+50 best solution, best possible 1.9996396 (93.69 seconds)
Cbc0010I After 477 nodes, 18 on tree, 1e+50 best solution, best possible 1.9996396 (94.49 seconds)
Cbc0010I After 482 nodes, 18 on tree, 1e+50 best solution, best possible 1.9996396 (95.45 seconds)
Cbc0010I After 488 nodes, 18 on tree, 1e+50 best solution, best possible 1.9996396 (96.43 seconds)
Cbc0010I After 490 nodes, 17 on tree, 1e+50 best solution, best possible 1.9996396 (97.16 seconds)
Cbc0010I After 494 nodes, 16 on tree, 1e+50 best solution, best possible 1.9996396 (98.12 seconds)
Cbc0010I After 497 nodes, 17 on tree, 1e+50 best solution, best possible 1.9996396 (98.85 seconds)
Cbc0010I After 502 nodes, 17 on tree, 1e+50 best solution, best possible 1.9996396 (99.67 seconds)
Cbc0010I After 505 nodes, 18 on tree, 1e+50 best solution, best possible 1.9996396 (100.44 seconds)
Cbc0010I After 510 nodes, 16 on tree, 1e+50 best solution, best possible 1.9996396 (101.27 seconds)
Cbc0010I After 513 nodes, 15 on tree, 1e+50 best solution, best possible 1.9996396 (102.10 seconds)
Cbc0010I After 517 nodes, 14 on tree, 1e+50 best solution, best possible 1.9996396 (102.88 seconds)
Cbc0010I After 520 nodes, 15 on tree, 1e+50 best solution, best possible 1.9996396 (103.84 seconds)
Cbc0010I After 523 nodes, 16 on tree, 1e+50 best solution, best possible 1.9996396 (104.54 seconds)
Cbc0010I After 528 nodes, 15 on tree, 1e+50 best solution, best possible 1.9996396 (105.47 seconds)
Cbc0010I After 532 nodes, 16 on tree, 1e+50 best solution, best possible 1.9996396 (106.29 seconds)
Cbc0010I After 537 nodes, 16 on tree, 1e+50 best solution, best possible 1.9996396 (107.07 seconds)
Cbc0010I After 539 nodes, 15 on tree, 1e+50 best solution, best possible 1.9996396 (107.87 seconds)
Cbc0010I After 544 nodes, 15 on tree, 1e+50 best solution, best possible 1.9996396 (108.81 seconds)
Cbc0010I After 549 nodes, 13 on tree, 1e+50 best solution, best possible 1.9996396 (109.65 seconds)
Cbc0010I After 554 nodes, 12 on tree, 1e+50 best solution, best possible 1.9996396 (110.65 seconds)
Cbc0010I After 558 nodes, 10 on tree, 1e+50 best solution, best possible 1.9996396 (111.46 seconds)
Cbc0010I After 562 nodes, 12 on tree, 1e+50 best solution, best possible 1.9996396 (112.27 seconds)
Cbc0010I After 568 nodes, 10 on tree, 1e+50 best solution, best possible 1.9996396 (113.18 seconds)
Cbc0010I After 575 nodes, 9 on tree, 1e+50 best solution, best possible 1.9996396 (113.89 seconds)
Cbc0010I After 581 nodes, 7 on tree, 1e+50 best solution, best possible 1.9996396 (114.79 seconds)
Cbc0010I After 584 nodes, 8 on tree, 1e+50 best solution, best possible 1.9996396 (115.63 seconds)
Cbc0010I After 589 nodes, 9 on tree, 1e+50 best solution, best possible 1.9996396 (116.72 seconds)
Cbc0010I After 594 nodes, 10 on tree, 1e+50 best solution, best possible 1.9996396 (117.44 seconds)
Cbc0010I After 604 nodes, 6 on tree, 1e+50 best solution, best possible 1.9996396 (118.37 seconds)
Cbc0010I After 613 nodes, 4 on tree, 1e+50 best solution, best possible 1.9996396 (119.41 seconds)
Cbc0010I After 623 nodes, 10 on tree, 1e+50 best solution, best possible 1.9996396 (120.16 seconds)
Cbc0010I After 639 nodes, 16 on tree, 1e+50 best solution, best possible 1.9996396 (120.92 seconds)
Cbc0004I Integer solution of 4 found after 167581 iterations and 660 nodes (121.62 seconds)
Cbc0010I After 660 nodes, 2 on tree, 4 best solution, best possible 1.9996396 (121.63 seconds)
Cbc0001I Search completed - best objective 4, took 167589 iterations and 662 nodes (121.66 seconds)
Cbc0032I Strong branching done 4130 times (168082 iterations), fathomed 3 nodes and fixed 34 variables
Cbc0035I Maximum depth 33, 0 variables fixed on reduced cost
Cuts at root node changed objective from 0.590531 to 1.99964
Probing was tried 469 times and created 3314 cuts of which 0 were active after adding rounds of cuts (4.62915 seconds)
Gomory was tried 461 times and created 155 cuts of which 0 were active after adding rounds of cuts (3.59534 seconds)
Knapsack was tried 461 times and created 390 cuts of which 0 were active after adding rounds of cuts (4.47336 seconds)
Clique was tried 461 times and created 1793 cuts of which 0 were active after adding rounds of cuts (1.10372 seconds)
OddWheel was tried 10 times and created 1 cuts of which 0 were active after adding rounds of cuts (0.210108 seconds)
MixedIntegerRounding2 was tried 461 times and created 3036 cuts of which 0 were active after adding rounds of cuts (2.3485 seconds)
FlowCover was tried 10 times and created 0 cuts of which 0 were active after adding rounds of cuts (0.003888 seconds)
TwoMirCuts was tried 461 times and created 2183 cuts of which 0 were active after adding rounds of cuts (1.42141 seconds)
ZeroHalf was tried 461 times and created 4427 cuts of which 0 were active after adding rounds of cuts (5.96143 seconds)

Result - Optimal solution found
Objective value:                4
Enumerated nodes:               662
Total iterations:               167589
Time (CPU seconds):             121.609
Time (Wallclock seconds):       121.699
Total time (CPU seconds):       121.65   (Wallclock seconds):       121.728
